
Gurobi 6.5.1 (win64) logging started 05/23/16 12:50:38

Parameter OutputFlag unchanged
   Value: 1  Min: 0  Max: 1  Default: 1
Changed value of parameter Threads to 12
   Prev: 0  Min: 0  Max: 1024  Default: 0
Optimize a model with 3809 rows, 2606 columns and 10409 nonzeros
Coefficient statistics:
  Matrix range    [1e-03, 1e+07]
  Objective range [1e+00, 1e+00]
  Bounds range    [1e+00, 1e+00]
  RHS range       [2e+01, 1e+07]
Presolve removed 3 rows and 2 columns
Presolve time: 0.11s
Presolved: 3806 rows, 2604 columns, 10402 nonzeros

Warning: Thread count (12) is larger than core count (2)
         Reduce the value of the Threads parameter to improve performance

Variable types: 1402 continuous, 1202 integer (1202 binary)

Root relaxation: objective 0.000000e+00, 1093 iterations, 0.06 seconds

    Nodes    |    Current Node    |     Objective Bounds      |     Work
 Expl Unexpl |  Obj  Depth IntInf | Incumbent    BestBd   Gap | It/Node Time

     0     0    0.00000    0   25          -    0.00000      -     -    1s
     0     0    0.00000    0  325          -    0.00000      -     -    2s
     0     0    0.00000    0  325          -    0.00000      -     -    3s
     0     0    0.07172    0  358          -    0.07172      -     -    5s
     0     0    0.07172    0  497          -    0.07172      -     -    5s
     0     0    0.07172    0  402          -    0.07172      -     -    8s
     0     0    0.07172    0  227          -    0.07172      -     -    9s
     0     2    0.07172    0   86          -    0.07172      -     -   12s
     8    12   20.60000    4  182          -   20.60000      -   859   15s
   233   152   20.60000   20  236          -   20.60000      -   163   21s
   495   272   20.60000   20  207          -   20.60000      -   165   26s
   823   473 infeasible   38               -   20.60000      -   136   33s
   909   464 infeasible   39               -   20.60000      -   135   36s
  1111   551   20.60000   13  206          -   20.60000      -   128   40s
  1692   676 infeasible   36               -   20.60000      -   113   50s
  2409   763   20.60000   27  104          -   20.60000      -   103   60s
  2739   766   20.60000   39  152          -   20.60000      -   104   66s
  3229   748   20.60000   64  139          -   20.60000      -  97.8   72s
  3696   830   20.60000   54  107          -   20.60000      -  96.0   78s
  3998   886   20.60000   64  125          -   20.60000      -  98.5   87s
  4369   925   20.60000   76  150          -   20.60000      -   100   95s
  4742   910 infeasible   80               -   20.60000      -   101  105s
  5161   919   20.60000   72  125          -   20.60000      -   100  113s
  5565   925 infeasible   34               -   20.60000      -   101  122s
  6023   954   20.60000   33  104          -   20.60000      -   102  133s
  6494   984 infeasible   40               -   20.60000      -   103  147s
  6869   987 infeasible   20               -   20.60000      -   106  161s
  7300   967   20.60000   20   83          -   20.60000      -   109  173s
  7782   985 infeasible   14               -   20.60000      -   111  190s
  8427  1042 infeasible   26               -   20.60000      -   113  209s
  9024  1204   20.60000   69  227          -   20.60000      -   114  211s
  9028  1207   20.60000   19   33          -   20.60000      -   114  215s
  9030  1210   20.60000   13  167          -   20.60000      -   1.0  222s
  9031  1211   42.90000   13  331          -   20.60000      -   1.1  225s
  9036  1212   20.60000   16  218          -   20.60000      -   1.5  239s
  9037  1214 infeasible   16               -   20.60000      -   1.5  240s
  9040  1211   20.60000   17  216          -   20.60000      -   1.6  247s
  9170  1168   20.60000   16  329          -   20.60000      -   2.1  264s
  9615  1049 infeasible  117               -   20.60000      -   4.9  286s
  9718  1023   20.60000   22  237          -   20.60000      -   9.2  320s
 11334  1581 infeasible   26               -   20.60000      -  17.8  354s
 11534  1461   20.60000   63  169          -   20.60000      -  23.1  385s
 15461  2983 infeasible   84               -   20.60000      -  35.6  414s
 15694  2901 infeasible   77               -   20.60000      -  40.6  458s
 16622  2971 infeasible   66               -   20.60000      -  45.0  512s
 23141  4335 infeasible   65               -   20.60000      -  45.7  542s
 23397  4132 infeasible   92               -   20.60000      -  47.5  579s
 23611  4044   20.60000   96  214          -   20.60000      -  50.7  629s
 27911  5155   20.60000  150   75          -   20.60000      -  51.9  630s
 28872  5235 infeasible   78               -   20.60000      -  52.2  666s
 29069  5136   20.60000   78  166          -   20.60000      -  54.1  704s
 33931  6239 infeasible   83               -   20.60000      -  53.2  705s
 35562  6387 infeasible  120               -   20.60000      -  53.0  730s
 35767  6166 infeasible   82               -   20.60000      -  54.1  753s
 35999  5918 infeasible  117               -   20.60000      -  55.2  767s
 36247  5733 infeasible  101               -   20.60000      -  56.1  798s
 41101  6788   20.60000   94  227          -   20.60000      -  54.0  872s
 41107  6792   20.60000   82   18          -   20.60000      -  54.0  879s
 41109  6793   20.60000   34   17          -   20.60000      -  54.0  882s
 41110  6794   20.60000   95   18          -   20.60000      -  54.0  886s
 41114  6799   42.90000   27   64          -   20.60000      -  54.2  890s
 41117  6801   20.60000   29  311          -   20.60000      -  54.3  895s
 41118  6801   20.60000   29  160          -   20.60000      -  54.3  900s
